WARNING: for repeatability, setting FPU to use double precision
============================[ Problem Statistics ]=============================
|                                                                             |
|  Number of variables:            50                                         |
|  Number of clauses:             218                                         |
|  Parse time:                   0.00 s                                       |
|                                                                             |
============================[ Search Statistics ]==============================
| Conflicts |          ORIGINAL         |          LEARNT          | Progress |
|           |    Vars  Clauses Literals |    Limit  Clauses Lit/Cl |          |
===============================================================================
===============================================================================
restarts              : 1
conflicts             : 4              (24845 /sec)
decisions             : 16             (0.00 % random) (99379 /sec)
propagations          : 102            (633540 /sec)
conflict literals     : 21             (0.00 % deleted)
Memory used           : 20.00 MB
CPU time              : 0.000161 s

SATISFIABLE
